proyfinal/src/viki/013/experimentInOfficeAgust.take6.output/6443aac4-4843-45dd-b45e-7a1d0d0c42d3.als.out
Reading from standard input... Use '--help' for help.
============================[ Problem Statistics ]=============================
|                                                                             |
|  Number of variables:         87638                                         |
|  Number of clauses:          161767                                         |
|  Parse time:                   0.04 s                                       |
|                                                                             |
============================[ Search Statistics ]==============================
| Conflicts |          ORIGINAL         |          LEARNT          | Progress |
|           |    Vars  Clauses Literals |    Limit  Clauses Lit/Cl |          |
===============================================================================
|       100 |   62002   103763   259343 |    38046      100     26 | 29.252 % |
|       250 |   62002   103763   259343 |    41851      250     61 | 29.252 % |
|       475 |   61998   103747   259299 |    46036      453    126 | 29.257 % |
|       812 |   43494    50289   128270 |    50639      782    100 | 50.371 % |
|      1318 |   43249    49242   125573 |    55703     1043     84 | 50.650 % |
|      2077 |   43249    49242   125573 |    61274     1802     65 | 50.650 % |
===============================================================================
restarts              : 15
conflicts             : 2822           (11130 /sec)
decisions             : 10415          (0.00 % random) (41075 /sec)
propagations          : 3649383        (14392695 /sec)
conflict literals     : 149678         (18.21 % deleted)
Memory used           : 23.90 MB
CPU time              : 0.253558 s

UNSATISFIABLE
